NAME : kroC100.43994.tour
COMMENT : Cost = 0_43994
COMMENT : Found by LKH [Keld Helsgaun] Thu Nov 16 16:23:55 2017
TYPE : TOUR
DIMENSION : 119
TOUR_SECTION
1
53
119
65
80
77
118
60
116
61
26
7
82
78
9
16
51
63
44
66
48
84
11
52
87
96
97
81
45
33
100
74
57
36
10
92
19
99
14
69
3
73
59
41
89
30
68
2
35
23
21
70
76
91
94
95
50
62
83
72
86
5
43
56
71
38
39
28
88
98
58
34
90
25
17
8
22
75
54
6
47
31
67
55
42
64
20
117
37
115
4
114
93
113
18
112
49
111
29
110
32
109
13
108
79
107
24
106
46
105
12
104
15
103
27
102
40
101
85
-1
EOF
